c DCNF-Autarky [version 0.0.1]. 
c Copyright (c) 2018-2019 Swansea University. 
c 
c Input QBF/DQBF path: MiniAyari18//flipflop-3-c.qdimacs
c Output SAT Translation Path: /tmp/flipflop-3-c.qdimacs-dcnfAutarky.dimacs
c Input Clause Count (tautology free): 203
c
c Performing E1-Autarky iteration.
c Remaining clauses count after E-Reduction: 201
c
c Performing A1-Autarky iteration.
c Running Lingeling ... 
c
c Remaining clauses count after A-Reduction: 201
c
c Input Parameter (command line, file): 
c input filename   MiniAyari18//flipflop-3-c.qdimacs
c output filename  /tmp/flipflop-3-c.qdimacs-dcnfAutarky.dimacs
c autarky level    1
c conformity level 0
c encoding type    2
c no.of var        551
c no.of clauses    203
c no.of taut cls   0
c 
c Output Parameters: 
c remaining no.of clauses  201
c
c filename pn pc autarky ntaut rpa rpe rpcdiff result
c "MiniAyari18//flipflop-3-c.qdimacs" 551 203 "E1+A1" 0 15 146 2 "RED" 
c Total time taken 0 secs.
c
p cnf 551 201
e 396 395 394 392 391 390 389 388 0
a 411 410 409 408 407 406 405 404 403 402 401 400 399 398 397 0
e 414 413 412 417 416 415 418 419 420 421 422 423 424 425 426 427 428 429 430 431 432 433 434 435 436 437 438 439 440 441 442 443 444 445 446 447 448 449 450 451 452 453 454 455 456 457 458 459 460 461 462 463 464 465 466 467 468 469 470 471 472 473 474 475 476 477 478 479 480 481 482 483 484 485 486 487 488 489 490 491 492 493 494 495 496 497 498 499 500 501 502 503 504 505 506 507 508 509 510 511 512 513 514 515 516 517 518 519 520 521 522 523 524 525 526 527 528 529 530 531 532 533 534 535 536 537 538 539 540 541 542 543 544 545 546 547 548 549 550 551 0
510 -418 0
419 -418 0
392 -510 0
511 -510 0
541 -511 0
512 -511 0
549 -541 0
542 -541 0
551 -549 0
550 -549 0
404 -551 -403 0
403 -550 -404 0
546 -542 0
543 -542 0
548 -546 0
547 -546 0
401 -548 -400 0
400 -547 -401 0
545 -543 0
544 -543 0
398 -545 -397 0
397 -544 -398 0
528 -512 0
513 -512 0
417 -528 0
529 -528 0
536 -529 0
530 -529 0
539 -536 0
537 -536 0
417 540 -539 0
390 -540 -389 0
538 -537 -417 0
-538 -390 0
389 -538 0
531 -530 0
534 -531 0
532 -531 0
416 535 -534 0
389 -535 -388 0
533 -532 -416 0
-533 -389 0
388 -533 0
515 -513 0
514 -513 0
414 -515 0
516 -515 0
523 -516 0
517 -516 0
526 -523 0
524 -523 0
414 527 -526 0
389 -527 -390 0
525 -524 -414 0
390 -525 0
-525 -389 0
518 -517 0
521 -518 0
519 -518 0
413 522 -521 0
388 -522 -389 0
520 -519 -413 0
389 -520 0
-520 -388 0
389 -514 0
-514 -388 0
495 -419 0
420 -419 0
507 -495 0
496 -495 0
509 -507 0
508 -507 0
389 -509 -390 0
388 -508 -389 0
502 -496 0
497 -496 0
503 504 -502 0
506 -504 0
505 -504 0
390 -506 -389 0
389 -505 -390 0
388 -503 -389 0
498 499 -497 0
501 -499 0
500 -499 0
390 -501 -389 0
389 -500 -390 0
389 -498 -388 0
484 -420 0
421 -420 0
490 -484 0
485 -484 0
493 -490 0
491 -490 0
411 494 -493 0
401 -494 0
395 -494 0
492 -491 -411 0
-492 -401 -395 0
488 -485 0
486 -485 0
410 489 -488 0
400 -489 0
394 -489 0
487 -486 -410 0
-487 -400 -394 0
473 -421 0
422 -421 0
479 -473 0
474 -473 0
482 -479 0
480 -479 0
396 483 -482 0
410 -483 0
404 -483 0
481 -480 -396 0
-481 -410 -404 0
477 -474 0
475 -474 0
395 478 -477 0
409 -478 0
403 -478 0
476 -475 -395 0
-476 -409 -403 0
462 -422 0
423 -422 0
468 -462 0
463 -462 0
471 -468 0
469 -468 0
408 472 -471 0
404 -472 0
398 -472 0
470 -469 -408 0
-470 -404 -398 0
466 -463 0
464 -463 0
407 467 -466 0
403 -467 0
397 -467 0
465 -464 -407 0
-465 -403 -397 0
451 -423 0
424 -423 0
457 -451 0
452 -451 0
460 -457 0
458 -457 0
405 461 -460 0
389 -461 0
407 -461 0
459 -458 -405 0
-459 -407 -389 0
455 -452 0
453 -452 0
404 456 -455 0
388 -456 0
406 -456 0
454 -453 -404 0
-454 -406 -388 0
436 -424 0
425 -424 0
444 -436 0
437 -436 0
448 -444 0
445 -444 0
402 449 -448 0
398 -449 0
450 -449 0
389 -450 0
404 -450 0
446 -445 -402 0
447 -446 -398 0
-447 -404 -389 0
441 -437 0
438 -437 0
401 442 -441 0
397 -442 0
443 -442 0
388 -443 0
403 -443 0
439 -438 -401 0
440 -439 -397 0
-440 -403 -388 0
431 -425 0
426 -425 0
434 -431 0
432 -431 0
399 435 -434 0
392 -435 0
401 -435 0
433 -432 -399 0
-433 -401 -392 0
429 -426 0
427 -426 0
398 430 -429 0
391 -430 0
400 -430 0
428 -427 -398 0
-428 -400 -391 0
418 0
